PROBLEM NAME: 	tsp225-TTP
KNAPSACK DATA TYPE: bounded strongly corr
DIMENSION:	225
NUMBER OF ITEMS: 	224
CAPACITY OF KNAPSACK: 	97646
MIN SPEED: 	0.1
MAX SPEED: 	1
RENTING RATIO: 	12.63
EDGE_WEIGHT_TYPE:	CEIL_2D
NODE_COORD_SECTION	(INDEX, X, Y): 
1	155.42	150.65
2	375.92	164.65
3	183.92	150.65
4	205.42	150.65
5	205.42	171.65
6	226.42	171.65
7	226.42	186.15
8	226.42	207.15
9	226.42	235.65
10	226.42	264.15
11	226.42	292.65
12	226.42	314.15
13	226.42	335.65
14	205.42	335.65
15	190.92	335.65
16	190.92	328.15
17	176.92	328.15
18	176.92	299.65
19	155.42	299.65
20	155.42	328.15
21	155.42	356.65
22	183.92	356.65
23	219.42	356.65
24	240.92	356.65
25	269.42	356.65
26	290.42	356.65
27	387.42	136.15
28	318.92	356.65
29	318.92	335.65
30	318.92	328.15
31	318.92	299.65
32	297.92	299.65
33	290.42	328.15
34	290.42	335.65
35	297.92	328.15
36	254.92	335.65
37	254.92	314.15
38	254.92	292.65
39	254.92	271.65
40	254.92	243.15
41	254.92	221.65
42	254.92	193.15
43	254.92	171.65
44	276.42	171.65
45	296.42	150.65
46	276.42	150.65
47	375.92	150.65
48	308.92	150.65
49	354.92	164.65
50	338.42	174.65
51	354.92	174.65
52	338.42	200.15
53	338.42	221.65
54	354.92	221.65
55	354.92	200.15
56	361.92	200.15
57	361.92	186.15
58	383.42	186.15
59	383.42	179.15
60	404.42	179.15
61	404.42	186.15
62	418.92	186.15
63	418.92	200.15
64	432.92	200.15
65	432.92	221.65
66	418.92	221.65
67	418.92	235.65
68	397.42	235.65
69	397.42	243.15
70	375.92	243.15
71	375.92	257.15
72	368.92	257.15
73	368.92	264.15
74	347.42	264.15
75	347.42	278.65
76	336.42	278.65
77	336.42	328.15
78	347.42	328.15
79	347.42	342.65
80	368.92	342.65
81	368.92	353.65
82	418.92	353.65
83	418.92	342.65
84	432.92	342.65
85	432.92	356.65
86	447.42	356.65
87	447.42	321.15
88	447.42	292.65
89	432.92	292.65
90	432.92	314.15
91	418.92	314.15
92	418.92	321.15
93	397.42	321.15
94	397.42	333.65
95	375.92	333.65
96	375.92	321.15
97	361.92	321.15
98	361.92	299.65
99	375.92	299.65
100	375.92	285.65
101	397.42	285.65
102	397.42	271.65
103	418.92	271.65
104	418.92	264.15
105	439.92	264.15
106	439.92	250.15
107	454.42	250.15
108	454.42	243.15
109	461.42	243.15
110	461.42	214.65
111	461.42	193.15
112	447.42	193.15
113	447.42	179.15
114	439.92	179.15
115	439.92	167.65
116	419.92	167.65
117	419.92	150.65
118	439.92	150.65
119	454.42	150.65
120	475.92	150.65
121	475.92	171.65
122	496.92	171.65
123	496.92	193.15
124	496.92	214.65
125	496.92	243.15
126	496.92	271.65
127	496.92	292.65
128	496.92	317.15
129	496.92	335.65
130	470.42	335.65
131	470.42	356.65
132	496.92	356.65
133	347.42	150.65
134	539.92	356.65
135	560.92	356.65
136	589.42	356.65
137	589.42	342.65
138	603.92	342.65
139	610.92	342.65
140	610.92	335.65
141	610.92	321.15
142	624.92	321.15
143	624.92	278.65
144	610.92	278.65
145	610.92	257.15
146	589.42	257.15
147	589.42	250.15
148	575.42	250.15
149	560.92	250.15
150	542.92	250.15
151	542.92	264.15
152	560.92	264.15
153	575.42	264.15
154	575.42	271.65
155	582.42	271.65
156	582.42	285.65
157	596.42	285.65
158	560.92	335.65
159	596.42	314.15
160	582.42	314.15
161	582.42	321.15
162	575.42	321.15
163	575.42	335.65
164	525.42	335.65
165	525.42	314.15
166	525.42	299.65
167	525.42	281.65
168	525.42	233.15
169	525.42	214.65
170	525.42	193.15
171	525.42	171.65
172	546.92	171.65
173	546.92	150.65
174	568.42	150.65
175	475.92	160.65
176	603.92	150.65
177	624.92	150.65
178	624.92	136.15
179	596.42	136.15
180	575.42	136.15
181	553.92	136.15
182	532.42	136.15
183	575.42	356.65
184	489.92	136.15
185	468.42	136.15
186	447.42	136.15
187	425.92	136.15
188	404.42	136.15
189	370.42	136.15
190	361.92	150.65
191	340.42	136.15
192	326.42	136.15
193	301.92	136.15
194	276.42	136.15
195	254.92	136.15
196	315.92	136.15
197	212.42	136.15
198	190.92	136.15
199	338.92	150.65
200	155.42	136.15
201	624.92	299.65
202	318.92	321.65
203	155.42	314.15
204	311.92	356.65
205	355.42	136.15
206	318.92	314.15
207	362.92	164.65
208	254.92	356.65
209	383.42	333.65
210	447.42	335.65
211	470.42	345.65
212	525.42	250.15
213	546.92	335.65
214	525.42	261.15
215	525.42	356.65
216	336.42	298.65
217	336.42	313.15
218	293.42	136.15
219	336.42	306.15
220	425.92	264.15
221	391.42	353.65
222	482.92	335.65
223	429.92	167.65
224	330.92	150.65
225	368.42	150.65
ITEMS SECTION	(INDEX, PROFIT, WEIGHT, ASSIGNED NODE NUMBER): 
1	101	1	2
2	202	2	3
3	404	4	4
4	202	2	5
5	996	896	6
6	1992	1792	7
7	3984	3584	8
8	467	367	9
9	934	734	10
10	1868	1468	11
11	790	690	12
12	790	690	13
13	713	613	14
14	1426	1226	15
15	2852	2452	16
16	974	874	17
17	974	874	18
18	222	122	19
19	444	244	20
20	888	488	21
21	666	366	22
22	586	486	23
23	1172	972	24
24	1172	972	25
25	923	823	26
26	923	823	27
27	563	463	28
28	1126	926	29
29	563	463	30
30	689	589	31
31	1378	1178	32
32	1378	1178	33
33	425	325	34
34	850	650	35
35	1700	1300	36
36	1275	975	37
37	1100	1000	38
38	2200	2000	39
39	4400	4000	40
40	876	776	41
41	1752	1552	42
42	2628	2328	43
43	223	123	44
44	456	356	45
45	405	305	46
46	810	610	47
47	1620	1220	48
48	405	305	49
49	147	47	50
50	294	94	51
51	588	188	52
52	745	645	53
53	1490	1290	54
54	2980	2580	55
55	1490	1290	56
56	239	139	57
57	347	247	58
58	694	494	59
59	1388	988	60
60	1041	741	61
61	311	211	62
62	622	422	63
63	1244	844	64
64	933	633	65
65	200	100	66
66	400	200	67
67	800	400	68
68	200	100	69
69	727	627	70
70	1454	1254	71
71	1454	1254	72
72	860	760	73
73	1720	1520	74
74	876	776	75
75	1752	1552	76
76	3504	3104	77
77	575	475	78
78	1150	950	79
79	2300	1900	80
80	1037	937	81
81	2074	1874	82
82	4148	3748	83
83	1037	937	84
84	201	101	85
85	402	202	86
86	804	404	87
87	402	202	88
88	381	281	89
89	762	562	90
90	1524	1124	91
91	762	562	92
92	851	751	93
93	1702	1502	94
94	3404	3004	95
95	1702	1502	96
96	630	530	97
97	1260	1060	98
98	2520	2120	99
99	340	240	100
100	680	480	101
101	680	480	102
102	348	248	103
103	696	496	104
104	1044	744	105
105	868	768	106
106	131	31	107
107	262	62	108
108	131	31	109
109	713	613	110
110	1426	1226	111
111	2852	2452	112
112	713	613	113
113	981	881	114
114	1962	1762	115
115	1962	1762	116
116	467	367	117
117	934	734	118
118	1868	1468	119
119	467	367	120
120	812	712	121
121	510	410	122
122	1020	820	123
123	2040	1640	124
124	510	410	125
125	257	157	126
126	514	314	127
127	1028	628	128
128	771	471	129
129	924	824	130
130	342	242	131
131	572	472	132
132	1144	944	133
133	1716	1416	134
134	822	722	135
135	1644	1444	136
136	3288	2888	137
137	875	775	138
138	875	775	139
139	471	371	140
140	942	742	141
141	1884	1484	142
142	437	337	143
143	874	674	144
144	437	337	145
145	985	885	146
146	1970	1770	147
147	3940	3540	148
148	1970	1770	149
149	304	204	150
150	608	408	151
151	1216	816	152
152	608	408	153
153	694	594	154
154	1388	1188	155
155	2776	2376	156
156	1388	1188	157
157	326	226	158
158	652	452	159
159	1304	904	160
160	326	226	161
161	652	452	162
162	1021	921	163
163	637	537	164
164	1274	1074	165
165	2548	2148	166
166	212	112	167
167	212	112	168
168	1059	959	169
169	2118	1918	170
170	3177	2877	171
171	492	392	172
172	492	392	173
173	809	709	174
174	1618	1418	175
175	3236	2836	176
176	1040	940	177
177	2080	1880	178
178	1043	943	179
179	2086	1886	180
180	4172	3772	181
181	179	79	182
182	179	79	183
183	1022	922	184
184	2044	1844	185
185	2044	1844	186
186	461	361	187
187	1047	947	188
188	2094	1894	189
189	1047	947	190
190	961	861	191
191	1922	1722	192
192	3844	3444	193
193	2883	2583	194
194	1037	937	195
195	2074	1874	196
196	4148	3748	197
197	3111	2811	198
198	854	754	199
199	1708	1508	200
200	2562	2262	201
201	972	872	202
202	736	636	203
203	736	636	204
204	559	459	205
205	1118	918	206
206	2236	1836	207
207	1677	1377	208
208	490	390	209
209	490	390	210
210	241	141	211
211	482	282	212
212	723	423	213
213	211	111	214
214	422	222	215
215	844	444	216
216	633	333	217
217	688	588	218
218	1376	1176	219
219	688	588	220
220	106	6	221
221	106	6	222
222	255	155	223
223	510	310	224
224	1020	620	225
